W=7;
H=5;

MAX_TIME=39;
MAX_TRACKS=18;

TARGET=(3,7);

TRAINS=[(1,2,LEFT),(5,2,LEFT),(3,4,LEFT)];

INIT_POS=[
(1,2,STRAIGHT_RL),
(2,6,STRAIGHT_TD),
(3,4,STRAIGHT_RL),
(3,6,DSWITCH_D_T_R),
(3,7,STRAIGHT_RL),
(4,6,STRAIGHT_TD),
(5,2,STRAIGHT_RL),
(5,5,SWITCH_R_L_T),
(2,7,ROCK),
(4,7,ROCK),
];
TUNNEL_PAIRS=[];

GATES=[];
ACTIVATIONS=[
(5,5,1),
];

DSWITCHES=[
(3,6,1),
];
STATIONS=[
  (2,6,2),
  (4,6,1),
];
